Maximize
  - 2.9773447879517 edge_0_2_0_0 - 2.0498805768052 edge_0_3_0_0
   - 1.8693049002942 edge_0_5_0_0 - 2.4441965973636 edge_0_8_0_0
   - 2.044994126516 edge_0_10_0_0 - 2.4774216263178 edge_0_12_0_0
   - 2.017620133137 edge_0_23_0_0 - 2.76254204336 edge_0_24_0_0
   + 0.3072209148661803 edge_2_3_0_0 + 0.4039153345825403 edge_2_5_0_0
   + 0.2206245382339295 edge_2_8_0_0 + 0.3616962803713939 edge_2_10_0_0
   - 0.2067009120025997 edge_2_11_0_0 - 0.2037449622350904 edge_2_12_0_0
   - 0.5572946585115228 edge_2_13_0_0 - 0.3647402446810269 edge_2_14_0_0
   + 0.7982730104328142 edge_2_16_0_0 - 1.15456796905162 edge_2_24_0_0
   + 0.00595810529020217 edge_2_28_0_0 + 0.0469397423821289 edge_3_2_0_0
   + 0.0711920816214533 edge_3_5_0_0 - 0.2802315954806489 edge_3_8_0_0
   - 0.305947696061305 edge_3_10_0_0 - 0.1044746705794427 edge_3_11_0_0
   - 0.0443893342429529 edge_3_12_0_0 - 0.3876754147880645 edge_3_24_0_0
   + 1.778629777640691 edge_5_2_0_0 + 0.9160633104046033 edge_5_3_0_0
   + 2.990052237519814 edge_5_8_0_0 + 1.057423137261933 edge_5_10_0_0
   + 1.496562201499524 edge_5_11_0_0 + 1.004320660573848 edge_5_12_0_0
   + 1.078974415186024 edge_5_13_0_0 + 0.6180682950828269 edge_5_14_0_0
   + 1.37162184710602 edge_5_16_0_0 + 0.3191539260906495 edge_5_17_0_0
   + 0.5548773855190211 edge_5_18_0_0 - 0.3495721731811214 edge_5_22_0_0
   - 0.2766399195365736 edge_5_23_0_0 + 0.8461116323480213 edge_5_24_0_0
   - 1.125832758363431 edge_5_27_0_0 + 1.79889899263255 edge_5_28_0_0
   + 0.8516088450811536 edge_8_2_0_0 + 0.7854473957718684 edge_8_3_0_0
   + 1.106060198524274 edge_8_5_0_0 + 2.543088552656019 edge_8_10_0_0
   + 0.8946268239957154 edge_8_11_0_0 + 1.199915450114244 edge_8_12_0_0
   + 0.3050040332192643 edge_8_13_0_0 - 0.3282300191697026 edge_8_14_0_0
   + 0.4195512442833433 edge_8_16_0_0 - 0.1351421561930176 edge_8_17_0_0
   - 0.5282815108825276 edge_8_18_0_0 + 0.0650222847105302 edge_8_24_0_0
   + 0.4900966249982457 edge_8_28_0_0 + 0.1931007114490835 edge_10_2_0_0
   + 0.5494231117098778 edge_10_3_0_0 + 0.8297502744350116 edge_10_5_0_0
   + 1.894457336631131 edge_10_8_0_0 - 0.4163073827718847 edge_10_11_0_0
   + 0.1454946648358129 edge_10_12_0_0 - 0.2443269237285417 edge_10_13_0_0
   - 0.2214668503883031 edge_10_14_0_0 + 0.3162373625701903 edge_10_16_0_0
   - 0.2708162684938127 edge_10_24_0_0 + 0.3382068783005296 edge_10_28_0_0
   - 0.7694658528963837 edge_11_8_0_0 - 0.1888307720164069 edge_11_12_0_0
   - 0.5279018636402453 edge_11_13_0_0 - 0.2272269084698113 edge_12_2_0_0
   - 0.0243509476184477 edge_12_3_0_0 - 0.2103009458140479 edge_12_5_0_0
   - 0.1998530475514284 edge_12_8_0_0 + 0.0869199546119355 edge_12_10_0_0
   + 1.638038644434246 edge_12_11_0_0 + 1.626998722585431 edge_12_13_0_0
   + 1.635928388322456 edge_12_14_0_0 + 1.973816970758158 edge_12_16_0_0
   + 1.922563617764237 edge_12_17_0_0 + 1.123035784043849 edge_12_18_0_0
   - 0.0270828260105899 edge_12_22_0_0 + 0.0852891257330744 edge_12_23_0_0
   + 0.9514607067495067 edge_12_24_0_0 - 0.0348849512863168 edge_12_27_0_0
   + 0.9107996596585179 edge_12_28_0_0 - 0.6918658569881579 edge_13_12_0_0
   - 0.4277360756703844 edge_13_14_0_0 - 0.7531301099339768 edge_13_16_0_0
   - 0.3753517213506347 edge_14_2_0_0 - 0.1281521861325413 edge_14_3_0_0
   - 0.3565127659316994 edge_14_8_0_0 - 0.1613047309794768 edge_14_10_0_0
   - 0.3067788957325452 edge_14_11_0_0 + 0.0360119534282957 edge_14_12_0_0
   + 0.1883657526717984 edge_14_13_0_0 + 1.425721318561884 edge_14_16_0_0
   + 1.422982247966839 edge_14_17_0_0 + 0.3252359874688367 edge_14_18_0_0
   - 0.5270101165558287 edge_14_22_0_0 - 0.6662573547016355 edge_14_23_0_0
   - 0.0954652937946659 edge_14_24_0_0 - 0.7174861773661867 edge_14_27_0_0
   - 0.2761124305321417 edge_16_13_0_0 - 0.0904986930369772 edge_16_14_0_0
   - 0.1707984879786058 edge_16_17_0_0 - 0.8036210656391312 edge_17_2_0_0
   - 0.5184797917379383 edge_17_11_0_0 - 0.3699083589546115 edge_17_13_0_0
   - 0.3112997847714871 edge_17_14_0_0 + 0.3678217554501343 edge_17_16_0_0
   + 0.0287499285177565 edge_17_18_0_0 - 0.2267721800572703 edge_17_22_0_0
   - 0.4303461185580739 edge_17_23_0_0 + 0.7372537654639753 edge_17_24_0_0
   - 0.4133707271751549 edge_17_27_0_0 - 0.7268347092837928 edge_18_17_0_0
   - 0.6755509874412399 edge_18_22_0_0 + 0.0237645858014303 edge_22_18_0_0
   - 0.1973138003865979 edge_22_23_0_0 - 0.2930562409890445 edge_22_27_0_0
   - 0.7450818682856816 edge_23_3_0_0 - 1.618268410334491 edge_23_5_0_0
   - 0.4109532195016113 edge_23_18_0_0 + 0.2941853867639003 edge_23_22_0_0
   + 0.1810454251770116 edge_23_25_0_0 + 2.172180673697352 edge_23_27_0_0
   + 0.4923609798214784 edge_23_28_0_0 - 0.5036411249656187 edge_24_2_0_0
   - 0.3191281773683638 edge_24_3_0_0 - 0.3639342781233759 edge_24_5_0_0
   - 0.7742481781672896 edge_24_8_0_0 + 0.1201547946361183 edge_24_10_0_0
   + 0.00579913612422598 edge_24_11_0_0 + 0.0237527928560219 edge_24_12_0_0
   - 0.0521884276031396 edge_24_13_0_0 + 0.5910781563532305 edge_24_14_0_0
   - 0.1895310350890042 edge_24_16_0_0 - 0.1265861012327937 edge_24_17_0_0
   + 1.948266511329461 edge_24_18_0_0 + 2.045133994128031 edge_24_22_0_0
   + 3.162759085600716 edge_24_23_0_0 - 0.0621206787179437 edge_24_25_0_0
   + 1.481250282934978 edge_24_27_0_0 + 1.633148363444137 edge_24_28_0_0
   - 0.2594981328305511 edge_27_2_0_0 - 0.1389222136772667 edge_27_3_0_0
   - 0.2613739093566045 edge_27_5_0_0 - 0.8673577220263335 edge_27_8_0_0
   - 0.4543515916811128 edge_27_10_0_0 - 0.1628778923940359 edge_27_11_0_0
   - 0.8853028923724132 edge_27_14_0_0 - 0.5759716198585008 edge_27_17_0_0
   + 0.3879598267166089 edge_27_22_0_0 + 0.297748048076666 edge_27_23_0_0
   + 3.32777713132936 edge_27_25_0_0 + 0.3552911772004981 edge_27_28_0_0
   - 1.222691782223689 edge_28_27_0_0
Subject To
 one_parent_1: = 1
 consume_one_flow_unit_1: = 1
 one_parent_2: edge_0_2_0_0 + edge_3_2_0_0 + edge_5_2_0_0 + edge_8_2_0_0
   + edge_10_2_0_0 + edge_12_2_0_0 + edge_14_2_0_0 + edge_17_2_0_0
   + edge_24_2_0_0 + edge_27_2_0_0 = 1
 consume_one_flow_unit_2: flow_0_2_0_0 - flow_2_3_0_0 - flow_2_5_0_0
   - flow_2_8_0_0 - flow_2_10_0_0 - flow_2_11_0_0 - flow_2_12_0_0
   - flow_2_13_0_0 - flow_2_14_0_0 - flow_2_16_0_0 - flow_2_24_0_0
   - flow_2_28_0_0 + flow_3_2_0_0 + flow_5_2_0_0 + flow_8_2_0_0
   + flow_10_2_0_0 + flow_12_2_0_0 + flow_14_2_0_0 + flow_17_2_0_0
   + flow_24_2_0_0 + flow_27_2_0_0 = 1
 one_parent_3: edge_0_3_0_0 + edge_2_3_0_0 + edge_5_3_0_0 + edge_8_3_0_0
   + edge_10_3_0_0 + edge_12_3_0_0 + edge_14_3_0_0 + edge_23_3_0_0
   + edge_24_3_0_0 + edge_27_3_0_0 = 1
 consume_one_flow_unit_3: flow_0_3_0_0 + flow_2_3_0_0 - flow_3_2_0_0
   - flow_3_5_0_0 - flow_3_8_0_0 - flow_3_10_0_0 - flow_3_11_0_0
   - flow_3_12_0_0 - flow_3_24_0_0 + flow_5_3_0_0 + flow_8_3_0_0
   + flow_10_3_0_0 + flow_12_3_0_0 + flow_14_3_0_0 + flow_23_3_0_0
   + flow_24_3_0_0 + flow_27_3_0_0 = 1
 one_parent_4: = 1
 consume_one_flow_unit_4: = 1
 one_parent_5: edge_0_5_0_0 + edge_2_5_0_0 + edge_3_5_0_0 + edge_8_5_0_0
   + edge_10_5_0_0 + edge_12_5_0_0 + edge_23_5_0_0 + edge_24_5_0_0
   + edge_27_5_0_0 = 1
 consume_one_flow_unit_5: flow_0_5_0_0 + flow_2_5_0_0 + flow_3_5_0_0
   - flow_5_2_0_0 - flow_5_3_0_0 - flow_5_8_0_0 - flow_5_10_0_0
   - flow_5_11_0_0 - flow_5_12_0_0 - flow_5_13_0_0 - flow_5_14_0_0
   - flow_5_16_0_0 - flow_5_17_0_0 - flow_5_18_0_0 - flow_5_22_0_0
   - flow_5_23_0_0 - flow_5_24_0_0 - flow_5_27_0_0 - flow_5_28_0_0
   + flow_8_5_0_0 + flow_10_5_0_0 + flow_12_5_0_0 + flow_23_5_0_0
   + flow_24_5_0_0 + flow_27_5_0_0 = 1
 one_parent_6: = 1
 consume_one_flow_unit_6: = 1
 one_parent_7: = 1
 consume_one_flow_unit_7: = 1
 one_parent_8: edge_0_8_0_0 + edge_2_8_0_0 + edge_3_8_0_0 + edge_5_8_0_0
   + edge_10_8_0_0 + edge_11_8_0_0 + edge_12_8_0_0 + edge_14_8_0_0
   + edge_24_8_0_0 + edge_27_8_0_0 = 1
 consume_one_flow_unit_8: flow_0_8_0_0 + flow_2_8_0_0 + flow_3_8_0_0
   + flow_5_8_0_0 - flow_8_2_0_0 - flow_8_3_0_0 - flow_8_5_0_0
   - flow_8_10_0_0 - flow_8_11_0_0 - flow_8_12_0_0 - flow_8_13_0_0
   - flow_8_14_0_0 - flow_8_16_0_0 - flow_8_17_0_0 - flow_8_18_0_0
   - flow_8_24_0_0 - flow_8_28_0_0 + flow_10_8_0_0 + flow_11_8_0_0
   + flow_12_8_0_0 + flow_14_8_0_0 + flow_24_8_0_0 + flow_27_8_0_0 = 1
 one_parent_9: = 1
 consume_one_flow_unit_9: = 1
 one_parent_10: edge_0_10_0_0 + edge_2_10_0_0 + edge_3_10_0_0
   + edge_5_10_0_0 + edge_8_10_0_0 + edge_12_10_0_0 + edge_14_10_0_0
   + edge_24_10_0_0 + edge_27_10_0_0 = 1
 consume_one_flow_unit_10: flow_0_10_0_0 + flow_2_10_0_0 + flow_3_10_0_0
   + flow_5_10_0_0 + flow_8_10_0_0 - flow_10_2_0_0 - flow_10_3_0_0
   - flow_10_5_0_0 - flow_10_8_0_0 - flow_10_11_0_0 - flow_10_12_0_0
   - flow_10_13_0_0 - flow_10_14_0_0 - flow_10_16_0_0 - flow_10_24_0_0
   - flow_10_28_0_0 + flow_12_10_0_0 + flow_14_10_0_0 + flow_24_10_0_0
   + flow_27_10_0_0 = 1
 one_parent_11: edge_2_11_0_0 + edge_3_11_0_0 + edge_5_11_0_0
   + edge_8_11_0_0 + edge_10_11_0_0 + edge_12_11_0_0 + edge_14_11_0_0
   + edge_17_11_0_0 + edge_24_11_0_0 + edge_27_11_0_0 = 1
 consume_one_flow_unit_11: flow_2_11_0_0 + flow_3_11_0_0 + flow_5_11_0_0
   + flow_8_11_0_0 + flow_10_11_0_0 - flow_11_8_0_0 - flow_11_12_0_0
   - flow_11_13_0_0 + flow_12_11_0_0 + flow_14_11_0_0 + flow_17_11_0_0
   + flow_24_11_0_0 + flow_27_11_0_0 = 1
 one_parent_12: edge_0_12_0_0 + edge_2_12_0_0 + edge_3_12_0_0
   + edge_5_12_0_0 + edge_8_12_0_0 + edge_10_12_0_0 + edge_11_12_0_0
   + edge_13_12_0_0 + edge_14_12_0_0 + edge_24_12_0_0 = 1
 consume_one_flow_unit_12: flow_0_12_0_0 + flow_2_12_0_0 + flow_3_12_0_0
   + flow_5_12_0_0 + flow_8_12_0_0 + flow_10_12_0_0 + flow_11_12_0_0
   - flow_12_2_0_0 - flow_12_3_0_0 - flow_12_5_0_0 - flow_12_8_0_0
   - flow_12_10_0_0 - flow_12_11_0_0 - flow_12_13_0_0 - flow_12_14_0_0
   - flow_12_16_0_0 - flow_12_17_0_0 - flow_12_18_0_0 - flow_12_22_0_0
   - flow_12_23_0_0 - flow_12_24_0_0 - flow_12_27_0_0 - flow_12_28_0_0
   + flow_13_12_0_0 + flow_14_12_0_0 + flow_24_12_0_0 = 1
 one_parent_13: edge_2_13_0_0 + edge_5_13_0_0 + edge_8_13_0_0
   + edge_10_13_0_0 + edge_11_13_0_0 + edge_12_13_0_0 + edge_14_13_0_0
   + edge_16_13_0_0 + edge_17_13_0_0 + edge_24_13_0_0 = 1
 consume_one_flow_unit_13: flow_2_13_0_0 + flow_5_13_0_0 + flow_8_13_0_0
   + flow_10_13_0_0 + flow_11_13_0_0 + flow_12_13_0_0 - flow_13_12_0_0
   - flow_13_14_0_0 - flow_13_16_0_0 + flow_14_13_0_0 + flow_16_13_0_0
   + flow_17_13_0_0 + flow_24_13_0_0 = 1
 one_parent_14: edge_2_14_0_0 + edge_5_14_0_0 + edge_8_14_0_0
   + edge_10_14_0_0 + edge_12_14_0_0 + edge_13_14_0_0 + edge_16_14_0_0
   + edge_17_14_0_0 + edge_24_14_0_0 + edge_27_14_0_0 = 1
 consume_one_flow_unit_14: flow_2_14_0_0 + flow_5_14_0_0 + flow_8_14_0_0
   + flow_10_14_0_0 + flow_12_14_0_0 + flow_13_14_0_0 - flow_14_2_0_0
   - flow_14_3_0_0 - flow_14_8_0_0 - flow_14_10_0_0 - flow_14_11_0_0
   - flow_14_12_0_0 - flow_14_13_0_0 - flow_14_16_0_0 - flow_14_17_0_0
   - flow_14_18_0_0 - flow_14_22_0_0 - flow_14_23_0_0 - flow_14_24_0_0
   - flow_14_27_0_0 + flow_16_14_0_0 + flow_17_14_0_0 + flow_24_14_0_0
   + flow_27_14_0_0 = 1
 one_parent_15: = 1
 consume_one_flow_unit_15: = 1
 one_parent_16: edge_2_16_0_0 + edge_5_16_0_0 + edge_8_16_0_0
   + edge_10_16_0_0 + edge_12_16_0_0 + edge_13_16_0_0 + edge_14_16_0_0
   + edge_17_16_0_0 + edge_24_16_0_0 = 1
 consume_one_flow_unit_16: flow_2_16_0_0 + flow_5_16_0_0 + flow_8_16_0_0
   + flow_10_16_0_0 + flow_12_16_0_0 + flow_13_16_0_0 + flow_14_16_0_0
   - flow_16_13_0_0 - flow_16_14_0_0 - flow_16_17_0_0 + flow_17_16_0_0
   + flow_24_16_0_0 = 1
 one_parent_17: edge_5_17_0_0 + edge_8_17_0_0 + edge_12_17_0_0
   + edge_14_17_0_0 + edge_16_17_0_0 + edge_18_17_0_0 + edge_24_17_0_0
   + edge_27_17_0_0 = 1
 consume_one_flow_unit_17: flow_5_17_0_0 + flow_8_17_0_0 + flow_12_17_0_0
   + flow_14_17_0_0 + flow_16_17_0_0 - flow_17_2_0_0 - flow_17_11_0_0
   - flow_17_13_0_0 - flow_17_14_0_0 - flow_17_16_0_0 - flow_17_18_0_0
   - flow_17_22_0_0 - flow_17_23_0_0 - flow_17_24_0_0 - flow_17_27_0_0
   + flow_18_17_0_0 + flow_24_17_0_0 + flow_27_17_0_0 = 1
 one_parent_18: edge_5_18_0_0 + edge_8_18_0_0 + edge_12_18_0_0
   + edge_14_18_0_0 + edge_17_18_0_0 + edge_22_18_0_0 + edge_23_18_0_0
   + edge_24_18_0_0 = 1
 consume_one_flow_unit_18: flow_5_18_0_0 + flow_8_18_0_0 + flow_12_18_0_0
   + flow_14_18_0_0 + flow_17_18_0_0 - flow_18_17_0_0 - flow_18_22_0_0
   + flow_22_18_0_0 + flow_23_18_0_0 + flow_24_18_0_0 = 1
 one_parent_19: = 1
 consume_one_flow_unit_19: = 1
 one_parent_20: = 1
 consume_one_flow_unit_20: = 1
 one_parent_21: = 1
 consume_one_flow_unit_21: = 1
 one_parent_22: edge_5_22_0_0 + edge_12_22_0_0 + edge_14_22_0_0
   + edge_17_22_0_0 + edge_18_22_0_0 + edge_23_22_0_0 + edge_24_22_0_0
   + edge_27_22_0_0 = 1
 consume_one_flow_unit_22: flow_5_22_0_0 + flow_12_22_0_0 + flow_14_22_0_0
   + flow_17_22_0_0 + flow_18_22_0_0 - flow_22_18_0_0 - flow_22_23_0_0
   - flow_22_27_0_0 + flow_23_22_0_0 + flow_24_22_0_0 + flow_27_22_0_0 = 1
 one_parent_23: edge_0_23_0_0 + edge_5_23_0_0 + edge_12_23_0_0
   + edge_14_23_0_0 + edge_17_23_0_0 + edge_22_23_0_0 + edge_24_23_0_0
   + edge_27_23_0_0 = 1
 consume_one_flow_unit_23: flow_0_23_0_0 + flow_5_23_0_0 + flow_12_23_0_0
   + flow_14_23_0_0 + flow_17_23_0_0 + flow_22_23_0_0 - flow_23_3_0_0
   - flow_23_5_0_0 - flow_23_18_0_0 - flow_23_22_0_0 - flow_23_25_0_0
   - flow_23_27_0_0 - flow_23_28_0_0 + flow_24_23_0_0 + flow_27_23_0_0 = 1
 one_parent_24: edge_0_24_0_0 + edge_2_24_0_0 + edge_3_24_0_0
   + edge_5_24_0_0 + edge_8_24_0_0 + edge_10_24_0_0 + edge_12_24_0_0
   + edge_14_24_0_0 + edge_17_24_0_0 = 1
 consume_one_flow_unit_24: flow_0_24_0_0 + flow_2_24_0_0 + flow_3_24_0_0
   + flow_5_24_0_0 + flow_8_24_0_0 + flow_10_24_0_0 + flow_12_24_0_0
   + flow_14_24_0_0 + flow_17_24_0_0 - flow_24_2_0_0 - flow_24_3_0_0
   - flow_24_5_0_0 - flow_24_8_0_0 - flow_24_10_0_0 - flow_24_11_0_0
   - flow_24_12_0_0 - flow_24_13_0_0 - flow_24_14_0_0 - flow_24_16_0_0
   - flow_24_17_0_0 - flow_24_18_0_0 - flow_24_22_0_0 - flow_24_23_0_0
   - flow_24_25_0_0 - flow_24_27_0_0 - flow_24_28_0_0 = 1
 one_parent_25: edge_23_25_0_0 + edge_24_25_0_0 + edge_27_25_0_0 = 1
 consume_one_flow_unit_25: flow_23_25_0_0 + flow_24_25_0_0 + flow_27_25_0_0
   = 1
 one_parent_26: = 1
 consume_one_flow_unit_26: = 1
 one_parent_27: edge_5_27_0_0 + edge_12_27_0_0 + edge_14_27_0_0
   + edge_17_27_0_0 + edge_22_27_0_0 + edge_23_27_0_0 + edge_24_27_0_0
   + edge_28_27_0_0 = 1
 consume_one_flow_unit_27: flow_5_27_0_0 + flow_12_27_0_0 + flow_14_27_0_0
   + flow_17_27_0_0 + flow_22_27_0_0 + flow_23_27_0_0 + flow_24_27_0_0
   - flow_27_2_0_0 - flow_27_3_0_0 - flow_27_5_0_0 - flow_27_8_0_0
   - flow_27_10_0_0 - flow_27_11_0_0 - flow_27_14_0_0 - flow_27_17_0_0
   - flow_27_22_0_0 - flow_27_23_0_0 - flow_27_25_0_0 - flow_27_28_0_0
   + flow_28_27_0_0 = 1
 one_parent_28: edge_2_28_0_0 + edge_5_28_0_0 + edge_8_28_0_0
   + edge_10_28_0_0 + edge_12_28_0_0 + edge_23_28_0_0 + edge_24_28_0_0
   + edge_27_28_0_0 = 1
 consume_one_flow_unit_28: flow_2_28_0_0 + flow_5_28_0_0 + flow_8_28_0_0
   + flow_10_28_0_0 + flow_12_28_0_0 + flow_23_28_0_0 + flow_24_28_0_0
   + flow_27_28_0_0 - flow_28_27_0_0 = 1
 root_flow: flow_0_2_0_0 + flow_0_3_0_0 + flow_0_5_0_0 + flow_0_8_0_0
   + flow_0_10_0_0 + flow_0_12_0_0 + flow_0_23_0_0 + flow_0_24_0_0 = 28
 inactive_no_flow_0_2_0_0: flow_0_2_0_0 - 1000 edge_0_2_0_0 <= 0
 inactive_no_flow_0_3_0_0: flow_0_3_0_0 - 1000 edge_0_3_0_0 <= 0
 inactive_no_flow_0_5_0_0: flow_0_5_0_0 - 1000 edge_0_5_0_0 <= 0
 inactive_no_flow_0_8_0_0: flow_0_8_0_0 - 1000 edge_0_8_0_0 <= 0
 inactive_no_flow_0_10_0_0: flow_0_10_0_0 - 1000 edge_0_10_0_0 <= 0
 inactive_no_flow_0_12_0_0: flow_0_12_0_0 - 1000 edge_0_12_0_0 <= 0
 inactive_no_flow_0_23_0_0: flow_0_23_0_0 - 1000 edge_0_23_0_0 <= 0
 inactive_no_flow_0_24_0_0: flow_0_24_0_0 - 1000 edge_0_24_0_0 <= 0
 inactive_no_flow_2_3_0_0: flow_2_3_0_0 - 1000 edge_2_3_0_0 <= 0
 inactive_no_flow_2_5_0_0: flow_2_5_0_0 - 1000 edge_2_5_0_0 <= 0
 inactive_no_flow_2_8_0_0: flow_2_8_0_0 - 1000 edge_2_8_0_0 <= 0
 inactive_no_flow_2_10_0_0: flow_2_10_0_0 - 1000 edge_2_10_0_0 <= 0
 inactive_no_flow_2_11_0_0: flow_2_11_0_0 - 1000 edge_2_11_0_0 <= 0
 inactive_no_flow_2_12_0_0: flow_2_12_0_0 - 1000 edge_2_12_0_0 <= 0
 inactive_no_flow_2_13_0_0: flow_2_13_0_0 - 1000 edge_2_13_0_0 <= 0
 inactive_no_flow_2_14_0_0: flow_2_14_0_0 - 1000 edge_2_14_0_0 <= 0
 inactive_no_flow_2_16_0_0: flow_2_16_0_0 - 1000 edge_2_16_0_0 <= 0
 inactive_no_flow_2_24_0_0: flow_2_24_0_0 - 1000 edge_2_24_0_0 <= 0
 inactive_no_flow_2_28_0_0: flow_2_28_0_0 - 1000 edge_2_28_0_0 <= 0
 inactive_no_flow_3_2_0_0: flow_3_2_0_0 - 1000 edge_3_2_0_0 <= 0
 inactive_no_flow_3_5_0_0: flow_3_5_0_0 - 1000 edge_3_5_0_0 <= 0
 inactive_no_flow_3_8_0_0: flow_3_8_0_0 - 1000 edge_3_8_0_0 <= 0
 inactive_no_flow_3_10_0_0: flow_3_10_0_0 - 1000 edge_3_10_0_0 <= 0
 inactive_no_flow_3_11_0_0: flow_3_11_0_0 - 1000 edge_3_11_0_0 <= 0
 inactive_no_flow_3_12_0_0: flow_3_12_0_0 - 1000 edge_3_12_0_0 <= 0
 inactive_no_flow_3_24_0_0: flow_3_24_0_0 - 1000 edge_3_24_0_0 <= 0
 inactive_no_flow_5_2_0_0: flow_5_2_0_0 - 1000 edge_5_2_0_0 <= 0
 inactive_no_flow_5_3_0_0: flow_5_3_0_0 - 1000 edge_5_3_0_0 <= 0
 inactive_no_flow_5_8_0_0: flow_5_8_0_0 - 1000 edge_5_8_0_0 <= 0
 inactive_no_flow_5_10_0_0: flow_5_10_0_0 - 1000 edge_5_10_0_0 <= 0
 inactive_no_flow_5_11_0_0: flow_5_11_0_0 - 1000 edge_5_11_0_0 <= 0
 inactive_no_flow_5_12_0_0: flow_5_12_0_0 - 1000 edge_5_12_0_0 <= 0
 inactive_no_flow_5_13_0_0: flow_5_13_0_0 - 1000 edge_5_13_0_0 <= 0
 inactive_no_flow_5_14_0_0: flow_5_14_0_0 - 1000 edge_5_14_0_0 <= 0
 inactive_no_flow_5_16_0_0: flow_5_16_0_0 - 1000 edge_5_16_0_0 <= 0
 inactive_no_flow_5_17_0_0: flow_5_17_0_0 - 1000 edge_5_17_0_0 <= 0
 inactive_no_flow_5_18_0_0: flow_5_18_0_0 - 1000 edge_5_18_0_0 <= 0
 inactive_no_flow_5_22_0_0: flow_5_22_0_0 - 1000 edge_5_22_0_0 <= 0
 inactive_no_flow_5_23_0_0: flow_5_23_0_0 - 1000 edge_5_23_0_0 <= 0
 inactive_no_flow_5_24_0_0: flow_5_24_0_0 - 1000 edge_5_24_0_0 <= 0
 inactive_no_flow_5_27_0_0: flow_5_27_0_0 - 1000 edge_5_27_0_0 <= 0
 inactive_no_flow_5_28_0_0: flow_5_28_0_0 - 1000 edge_5_28_0_0 <= 0
 inactive_no_flow_8_2_0_0: flow_8_2_0_0 - 1000 edge_8_2_0_0 <= 0
 inactive_no_flow_8_3_0_0: flow_8_3_0_0 - 1000 edge_8_3_0_0 <= 0
 inactive_no_flow_8_5_0_0: flow_8_5_0_0 - 1000 edge_8_5_0_0 <= 0
 inactive_no_flow_8_10_0_0: flow_8_10_0_0 - 1000 edge_8_10_0_0 <= 0
 inactive_no_flow_8_11_0_0: flow_8_11_0_0 - 1000 edge_8_11_0_0 <= 0
 inactive_no_flow_8_12_0_0: flow_8_12_0_0 - 1000 edge_8_12_0_0 <= 0
 inactive_no_flow_8_13_0_0: flow_8_13_0_0 - 1000 edge_8_13_0_0 <= 0
 inactive_no_flow_8_14_0_0: flow_8_14_0_0 - 1000 edge_8_14_0_0 <= 0
 inactive_no_flow_8_16_0_0: flow_8_16_0_0 - 1000 edge_8_16_0_0 <= 0
 inactive_no_flow_8_17_0_0: flow_8_17_0_0 - 1000 edge_8_17_0_0 <= 0
 inactive_no_flow_8_18_0_0: flow_8_18_0_0 - 1000 edge_8_18_0_0 <= 0
 inactive_no_flow_8_24_0_0: flow_8_24_0_0 - 1000 edge_8_24_0_0 <= 0
 inactive_no_flow_8_28_0_0: flow_8_28_0_0 - 1000 edge_8_28_0_0 <= 0
 inactive_no_flow_10_2_0_0: flow_10_2_0_0 - 1000 edge_10_2_0_0 <= 0
 inactive_no_flow_10_3_0_0: flow_10_3_0_0 - 1000 edge_10_3_0_0 <= 0
 inactive_no_flow_10_5_0_0: flow_10_5_0_0 - 1000 edge_10_5_0_0 <= 0
 inactive_no_flow_10_8_0_0: flow_10_8_0_0 - 1000 edge_10_8_0_0 <= 0
 inactive_no_flow_10_11_0_0: flow_10_11_0_0 - 1000 edge_10_11_0_0 <= 0
 inactive_no_flow_10_12_0_0: flow_10_12_0_0 - 1000 edge_10_12_0_0 <= 0
 inactive_no_flow_10_13_0_0: flow_10_13_0_0 - 1000 edge_10_13_0_0 <= 0
 inactive_no_flow_10_14_0_0: flow_10_14_0_0 - 1000 edge_10_14_0_0 <= 0
 inactive_no_flow_10_16_0_0: flow_10_16_0_0 - 1000 edge_10_16_0_0 <= 0
 inactive_no_flow_10_24_0_0: flow_10_24_0_0 - 1000 edge_10_24_0_0 <= 0
 inactive_no_flow_10_28_0_0: flow_10_28_0_0 - 1000 edge_10_28_0_0 <= 0
 inactive_no_flow_11_8_0_0: flow_11_8_0_0 - 1000 edge_11_8_0_0 <= 0
 inactive_no_flow_11_12_0_0: flow_11_12_0_0 - 1000 edge_11_12_0_0 <= 0
 inactive_no_flow_11_13_0_0: flow_11_13_0_0 - 1000 edge_11_13_0_0 <= 0
 inactive_no_flow_12_2_0_0: flow_12_2_0_0 - 1000 edge_12_2_0_0 <= 0
 inactive_no_flow_12_3_0_0: flow_12_3_0_0 - 1000 edge_12_3_0_0 <= 0
 inactive_no_flow_12_5_0_0: flow_12_5_0_0 - 1000 edge_12_5_0_0 <= 0
 inactive_no_flow_12_8_0_0: flow_12_8_0_0 - 1000 edge_12_8_0_0 <= 0
 inactive_no_flow_12_10_0_0: flow_12_10_0_0 - 1000 edge_12_10_0_0 <= 0
 inactive_no_flow_12_11_0_0: flow_12_11_0_0 - 1000 edge_12_11_0_0 <= 0
 inactive_no_flow_12_13_0_0: flow_12_13_0_0 - 1000 edge_12_13_0_0 <= 0
 inactive_no_flow_12_14_0_0: flow_12_14_0_0 - 1000 edge_12_14_0_0 <= 0
 inactive_no_flow_12_16_0_0: flow_12_16_0_0 - 1000 edge_12_16_0_0 <= 0
 inactive_no_flow_12_17_0_0: flow_12_17_0_0 - 1000 edge_12_17_0_0 <= 0
 inactive_no_flow_12_18_0_0: flow_12_18_0_0 - 1000 edge_12_18_0_0 <= 0
 inactive_no_flow_12_22_0_0: flow_12_22_0_0 - 1000 edge_12_22_0_0 <= 0
 inactive_no_flow_12_23_0_0: flow_12_23_0_0 - 1000 edge_12_23_0_0 <= 0
 inactive_no_flow_12_24_0_0: flow_12_24_0_0 - 1000 edge_12_24_0_0 <= 0
 inactive_no_flow_12_27_0_0: flow_12_27_0_0 - 1000 edge_12_27_0_0 <= 0
 inactive_no_flow_12_28_0_0: flow_12_28_0_0 - 1000 edge_12_28_0_0 <= 0
 inactive_no_flow_13_12_0_0: flow_13_12_0_0 - 1000 edge_13_12_0_0 <= 0
 inactive_no_flow_13_14_0_0: flow_13_14_0_0 - 1000 edge_13_14_0_0 <= 0
 inactive_no_flow_13_16_0_0: flow_13_16_0_0 - 1000 edge_13_16_0_0 <= 0
 inactive_no_flow_14_2_0_0: flow_14_2_0_0 - 1000 edge_14_2_0_0 <= 0
 inactive_no_flow_14_3_0_0: flow_14_3_0_0 - 1000 edge_14_3_0_0 <= 0
 inactive_no_flow_14_8_0_0: flow_14_8_0_0 - 1000 edge_14_8_0_0 <= 0
 inactive_no_flow_14_10_0_0: flow_14_10_0_0 - 1000 edge_14_10_0_0 <= 0
 inactive_no_flow_14_11_0_0: flow_14_11_0_0 - 1000 edge_14_11_0_0 <= 0
 inactive_no_flow_14_12_0_0: flow_14_12_0_0 - 1000 edge_14_12_0_0 <= 0
 inactive_no_flow_14_13_0_0: flow_14_13_0_0 - 1000 edge_14_13_0_0 <= 0
 inactive_no_flow_14_16_0_0: flow_14_16_0_0 - 1000 edge_14_16_0_0 <= 0
 inactive_no_flow_14_17_0_0: flow_14_17_0_0 - 1000 edge_14_17_0_0 <= 0
 inactive_no_flow_14_18_0_0: flow_14_18_0_0 - 1000 edge_14_18_0_0 <= 0
 inactive_no_flow_14_22_0_0: flow_14_22_0_0 - 1000 edge_14_22_0_0 <= 0
 inactive_no_flow_14_23_0_0: flow_14_23_0_0 - 1000 edge_14_23_0_0 <= 0
 inactive_no_flow_14_24_0_0: flow_14_24_0_0 - 1000 edge_14_24_0_0 <= 0
 inactive_no_flow_14_27_0_0: flow_14_27_0_0 - 1000 edge_14_27_0_0 <= 0
 inactive_no_flow_16_13_0_0: flow_16_13_0_0 - 1000 edge_16_13_0_0 <= 0
 inactive_no_flow_16_14_0_0: flow_16_14_0_0 - 1000 edge_16_14_0_0 <= 0
 inactive_no_flow_16_17_0_0: flow_16_17_0_0 - 1000 edge_16_17_0_0 <= 0
 inactive_no_flow_17_2_0_0: flow_17_2_0_0 - 1000 edge_17_2_0_0 <= 0
 inactive_no_flow_17_11_0_0: flow_17_11_0_0 - 1000 edge_17_11_0_0 <= 0
 inactive_no_flow_17_13_0_0: flow_17_13_0_0 - 1000 edge_17_13_0_0 <= 0
 inactive_no_flow_17_14_0_0: flow_17_14_0_0 - 1000 edge_17_14_0_0 <= 0
 inactive_no_flow_17_16_0_0: flow_17_16_0_0 - 1000 edge_17_16_0_0 <= 0
 inactive_no_flow_17_18_0_0: flow_17_18_0_0 - 1000 edge_17_18_0_0 <= 0
 inactive_no_flow_17_22_0_0: flow_17_22_0_0 - 1000 edge_17_22_0_0 <= 0
 inactive_no_flow_17_23_0_0: flow_17_23_0_0 - 1000 edge_17_23_0_0 <= 0
 inactive_no_flow_17_24_0_0: flow_17_24_0_0 - 1000 edge_17_24_0_0 <= 0
 inactive_no_flow_17_27_0_0: flow_17_27_0_0 - 1000 edge_17_27_0_0 <= 0
 inactive_no_flow_18_17_0_0: flow_18_17_0_0 - 1000 edge_18_17_0_0 <= 0
 inactive_no_flow_18_22_0_0: flow_18_22_0_0 - 1000 edge_18_22_0_0 <= 0
 inactive_no_flow_22_18_0_0: flow_22_18_0_0 - 1000 edge_22_18_0_0 <= 0
 inactive_no_flow_22_23_0_0: flow_22_23_0_0 - 1000 edge_22_23_0_0 <= 0
 inactive_no_flow_22_27_0_0: flow_22_27_0_0 - 1000 edge_22_27_0_0 <= 0
 inactive_no_flow_23_3_0_0: flow_23_3_0_0 - 1000 edge_23_3_0_0 <= 0
 inactive_no_flow_23_5_0_0: flow_23_5_0_0 - 1000 edge_23_5_0_0 <= 0
 inactive_no_flow_23_18_0_0: flow_23_18_0_0 - 1000 edge_23_18_0_0 <= 0
 inactive_no_flow_23_22_0_0: flow_23_22_0_0 - 1000 edge_23_22_0_0 <= 0
 inactive_no_flow_23_25_0_0: flow_23_25_0_0 - 1000 edge_23_25_0_0 <= 0
 inactive_no_flow_23_27_0_0: flow_23_27_0_0 - 1000 edge_23_27_0_0 <= 0
 inactive_no_flow_23_28_0_0: flow_23_28_0_0 - 1000 edge_23_28_0_0 <= 0
 inactive_no_flow_24_2_0_0: flow_24_2_0_0 - 1000 edge_24_2_0_0 <= 0
 inactive_no_flow_24_3_0_0: flow_24_3_0_0 - 1000 edge_24_3_0_0 <= 0
 inactive_no_flow_24_5_0_0: flow_24_5_0_0 - 1000 edge_24_5_0_0 <= 0
 inactive_no_flow_24_8_0_0: flow_24_8_0_0 - 1000 edge_24_8_0_0 <= 0
 inactive_no_flow_24_10_0_0: flow_24_10_0_0 - 1000 edge_24_10_0_0 <= 0
 inactive_no_flow_24_11_0_0: flow_24_11_0_0 - 1000 edge_24_11_0_0 <= 0
 inactive_no_flow_24_12_0_0: flow_24_12_0_0 - 1000 edge_24_12_0_0 <= 0
 inactive_no_flow_24_13_0_0: flow_24_13_0_0 - 1000 edge_24_13_0_0 <= 0
 inactive_no_flow_24_14_0_0: flow_24_14_0_0 - 1000 edge_24_14_0_0 <= 0
 inactive_no_flow_24_16_0_0: flow_24_16_0_0 - 1000 edge_24_16_0_0 <= 0
 inactive_no_flow_24_17_0_0: flow_24_17_0_0 - 1000 edge_24_17_0_0 <= 0
 inactive_no_flow_24_18_0_0: flow_24_18_0_0 - 1000 edge_24_18_0_0 <= 0
 inactive_no_flow_24_22_0_0: flow_24_22_0_0 - 1000 edge_24_22_0_0 <= 0
 inactive_no_flow_24_23_0_0: flow_24_23_0_0 - 1000 edge_24_23_0_0 <= 0
 inactive_no_flow_24_25_0_0: flow_24_25_0_0 - 1000 edge_24_25_0_0 <= 0
 inactive_no_flow_24_27_0_0: flow_24_27_0_0 - 1000 edge_24_27_0_0 <= 0
 inactive_no_flow_24_28_0_0: flow_24_28_0_0 - 1000 edge_24_28_0_0 <= 0
 inactive_no_flow_27_2_0_0: flow_27_2_0_0 - 1000 edge_27_2_0_0 <= 0
 inactive_no_flow_27_3_0_0: flow_27_3_0_0 - 1000 edge_27_3_0_0 <= 0
 inactive_no_flow_27_5_0_0: flow_27_5_0_0 - 1000 edge_27_5_0_0 <= 0
 inactive_no_flow_27_8_0_0: flow_27_8_0_0 - 1000 edge_27_8_0_0 <= 0
 inactive_no_flow_27_10_0_0: flow_27_10_0_0 - 1000 edge_27_10_0_0 <= 0
 inactive_no_flow_27_11_0_0: flow_27_11_0_0 - 1000 edge_27_11_0_0 <= 0
 inactive_no_flow_27_14_0_0: flow_27_14_0_0 - 1000 edge_27_14_0_0 <= 0
 inactive_no_flow_27_17_0_0: flow_27_17_0_0 - 1000 edge_27_17_0_0 <= 0
 inactive_no_flow_27_22_0_0: flow_27_22_0_0 - 1000 edge_27_22_0_0 <= 0
 inactive_no_flow_27_23_0_0: flow_27_23_0_0 - 1000 edge_27_23_0_0 <= 0
 inactive_no_flow_27_25_0_0: flow_27_25_0_0 - 1000 edge_27_25_0_0 <= 0
 inactive_no_flow_27_28_0_0: flow_27_28_0_0 - 1000 edge_27_28_0_0 <= 0
 inactive_no_flow_28_27_0_0: flow_28_27_0_0 - 1000 edge_28_27_0_0 <= 0
Bounds
Binaries
 edge_0_2_0_0 edge_0_3_0_0 edge_0_5_0_0 edge_0_8_0_0 edge_0_10_0_0
 edge_0_12_0_0 edge_0_23_0_0 edge_0_24_0_0 edge_2_3_0_0 edge_2_5_0_0
 edge_2_8_0_0 edge_2_10_0_0 edge_2_11_0_0 edge_2_12_0_0 edge_2_13_0_0
 edge_2_14_0_0 edge_2_16_0_0 edge_2_24_0_0 edge_2_28_0_0 edge_3_2_0_0
 edge_3_5_0_0 edge_3_8_0_0 edge_3_10_0_0 edge_3_11_0_0 edge_3_12_0_0
 edge_3_24_0_0 edge_5_2_0_0 edge_5_3_0_0 edge_5_8_0_0 edge_5_10_0_0
 edge_5_11_0_0 edge_5_12_0_0 edge_5_13_0_0 edge_5_14_0_0 edge_5_16_0_0
 edge_5_17_0_0 edge_5_18_0_0 edge_5_22_0_0 edge_5_23_0_0 edge_5_24_0_0
 edge_5_27_0_0 edge_5_28_0_0 edge_8_2_0_0 edge_8_3_0_0 edge_8_5_0_0
 edge_8_10_0_0 edge_8_11_0_0 edge_8_12_0_0 edge_8_13_0_0 edge_8_14_0_0
 edge_8_16_0_0 edge_8_17_0_0 edge_8_18_0_0 edge_8_24_0_0 edge_8_28_0_0
 edge_10_2_0_0 edge_10_3_0_0 edge_10_5_0_0 edge_10_8_0_0 edge_10_11_0_0
 edge_10_12_0_0 edge_10_13_0_0 edge_10_14_0_0 edge_10_16_0_0 edge_10_24_0_0
 edge_10_28_0_0 edge_11_8_0_0 edge_11_12_0_0 edge_11_13_0_0 edge_12_2_0_0
 edge_12_3_0_0 edge_12_5_0_0 edge_12_8_0_0 edge_12_10_0_0 edge_12_11_0_0
 edge_12_13_0_0 edge_12_14_0_0 edge_12_16_0_0 edge_12_17_0_0 edge_12_18_0_0
 edge_12_22_0_0 edge_12_23_0_0 edge_12_24_0_0 edge_12_27_0_0 edge_12_28_0_0
 edge_13_12_0_0 edge_13_14_0_0 edge_13_16_0_0 edge_14_2_0_0 edge_14_3_0_0
 edge_14_8_0_0 edge_14_10_0_0 edge_14_11_0_0 edge_14_12_0_0 edge_14_13_0_0
 edge_14_16_0_0 edge_14_17_0_0 edge_14_18_0_0 edge_14_22_0_0 edge_14_23_0_0
 edge_14_24_0_0 edge_14_27_0_0 edge_16_13_0_0 edge_16_14_0_0 edge_16_17_0_0
 edge_17_2_0_0 edge_17_11_0_0 edge_17_13_0_0 edge_17_14_0_0 edge_17_16_0_0
 edge_17_18_0_0 edge_17_22_0_0 edge_17_23_0_0 edge_17_24_0_0 edge_17_27_0_0
 edge_18_17_0_0 edge_18_22_0_0 edge_22_18_0_0 edge_22_23_0_0 edge_22_27_0_0
 edge_23_3_0_0 edge_23_5_0_0 edge_23_18_0_0 edge_23_22_0_0 edge_23_25_0_0
 edge_23_27_0_0 edge_23_28_0_0 edge_24_2_0_0 edge_24_3_0_0 edge_24_5_0_0
 edge_24_8_0_0 edge_24_10_0_0 edge_24_11_0_0 edge_24_12_0_0 edge_24_13_0_0
 edge_24_14_0_0 edge_24_16_0_0 edge_24_17_0_0 edge_24_18_0_0 edge_24_22_0_0
 edge_24_23_0_0 edge_24_25_0_0 edge_24_27_0_0 edge_24_28_0_0 edge_27_2_0_0
 edge_27_3_0_0 edge_27_5_0_0 edge_27_8_0_0 edge_27_10_0_0 edge_27_11_0_0
 edge_27_14_0_0 edge_27_17_0_0 edge_27_22_0_0 edge_27_23_0_0 edge_27_25_0_0
 edge_27_28_0_0 edge_28_27_0_0
End
